HEA spinel 6x6x6 with cavity (Al,Cr,Fe,Co,Ni,Cu)O, XO for O vacancies
1.0
   51.2001113891999964    0.0000000000000000    0.0000000000000000
    0.0000000000000000   51.2001113891999964    0.0000000000000000
    0.0000000000000000    0.0000000000000000   51.2001113891999964
  X  Al  Cr  Fe  Co  Ni  Cu  XO  O
  576  793  735  742  792  790  756  768  6144
Direct
   0.333333333333333   0.333333333333333   0.000000000000000
   0.416666666666667   0.416666666666667   0.000000000000000
   0.375000000000000   0.375000000000000   0.041666666666667
   0.458333333333333   0.458333333333333   0.041666666666667
   0.333333333333333   0.416666666666667   0.083333333333333
   0.416666666666667   0.333333333333333   0.083333333333333
   0.375000000000000   0.458333333333333   0.125000000000000
   0.458333333333333   0.375000000000000   0.125000000000000
   0.395833333333333   0.479166666666667   0.020833333333333
   0.354166666666667   0.437500000000000   0.020833333333333
   0.479166666666667   0.395833333333333   0.020833333333333
   0.437500000000000   0.354166666666667   0.020833333333333
   0.479166666666667   0.354166666666667   0.062500000000000
   0.354166666666667   0.479166666666667   0.062500000000000
   0.395833333333333   0.437500000000000   0.062500000000000
   0.437500000000000   0.395833333333333   0.062500000000000
   0.395833333333333   0.395833333333333   0.104166666666667
   0.354166666666667   0.354166666666667   0.104166666666667
   0.479166666666667   0.479166666666667   0.104166666666667
   0.437500000000000   0.437500000000000   0.104166666666667
   0.395833333333333   0.354166666666667   0.145833333333333
   0.479166666666667   0.437500000000000   0.145833333333333
   0.354166666666667   0.395833333333333   0.145833333333333
   0.437500000000000   0.479166666666667   0.145833333333333
   0.333333333333333   0.333333333333333   0.166666666666667
   0.416666666666667   0.416666666666667   0.166666666666667
   0.375000000000000   0.375000000000000   0.208333333333333
   0.458333333333333   0.458333333333333   0.208333333333333
   0.333333333333333   0.416666666666667   0.250000000000000
   0.416666666666667   0.333333333333333   0.250000000000000
   0.375000000000000   0.458333333333333   0.291666666666667
   0.458333333333333   0.375000000000000   0.291666666666667
   0.395833333333333   0.479166666666667   0.187500000000000
   0.354166666666667   0.437500000000000   0.187500000000000
   0.479166666666667   0.395833333333333   0.187500000000000
   0.437500000000000   0.354166666666667   0.187500000000000
   0.479166666666667   0.354166666666667   0.229166666666667
   0.354166666666667   0.479166666666667   0.229166666666667
   0.395833333333333   0.437500000000000   0.229166666666667
   0.437500000000000   0.395833333333333   0.229166666666667
   0.395833333333333   0.395833333333333   0.270833333333333
   0.354166666666667   0.354166666666667   0.270833333333333
   0.479166666666667   0.479166666666667   0.270833333333333
   0.437500000000000   0.437500000000000   0.270833333333333
   0.395833333333333   0.354166666666667   0.312500000000000
   0.479166666666667   0.437500000000000   0.312500000000000
   0.354166666666667   0.395833333333333   0.312500000000000
   0.437500000000000   0.479166666666667   0.312500000000000
   0.333333333333333   0.333333333333333   0.333333333333333
   0.416666666666667   0.416666666666667   0.333333333333333
   0.375000000000000   0.375000000000000   0.375000000000000
   0.458333333333333   0.458333333333333   0.375000000000000
   0.333333333333333   0.416666666666667   0.416666666666667
   0.416666666666667   0.333333333333333   0.416666666666667
   0.375000000000000   0.458333333333333   0.458333333333333
   0.458333333333333   0.375000000000000   0.458333333333333
   0.395833333333333   0.479166666666667   0.354166666666667
   0.354166666666667   0.437500000000000   0.354166666666667
   0.479166666666667   0.395833333333333   0.354166666666667
   0.437500000000000   0.354166666666667   0.354166666666667
   0.479166666666667   0.354166666666667   0.395833333333333
   0.354166666666667   0.479166666666667   0.395833333333333
   0.395833333333333   0.437500000000000   0.395833333333333
   0.437500000000000   0.395833333333333   0.395833333333333
   0.395833333333333   0.395833333333333   0.437500000000000
   0.354166666666667   0.354166666666667   0.437500000000000
   0.479166666666667   0.479166666666667   0.437500000000000
   0.437500000000000   0.437500000000000   0.437500000000000
   0.395833333333333   0.354166666666667   0.479166666666667
   0.479166666666667   0.437500000000000   0.479166666666667
   0.354166666666667   0.395833333333333   0.479166666666667
   0.437500000000000   0.479166666666667   0.479166666666667
   0.333333333333333   0.333333333333333   0.500000000000000
   0.416666666666667   0.416666666666667   0.500000000000000
   0.375000000000000   0.375000000000000   0.541666666666667
   0.458333333333333   0.458333333333333   0.541666666666667
   0.333333333333333   0.416666666666667   0.583333333333333
   0.416666666666667   0.333333333333333   0.583333333333333
   0.375000000000000   0.458333333333333   0.625000000000000
   0.458333333333333   0.375000000000000   0.625000000000000
   0.395833333333333   0.479166666666667   0.520833333333333
   0.354166666666667   0.437500000000000   0.520833333333333
   0.479166666666667   0.395833333333333   0.520833333333333
   0.437500000000000   0.354166666666667   0.520833333333333
   0.479166666666667   0.354166666666667   0.562500000000000
   0.354166666666667   0.479166666666667   0.562500000000000
   0.395833333333333   0.437500000000000   0.562500000000000
   0.437500000000000   0.395833333333333   0.562500000000000
   0.395833333333333   0.395833333333333   0.604166666666667
   0.354166666666667   0.354166666666667   0.604166666666667
   0.479166666666667   0.479166666666667   0.604166666666667
   0.437500000000000   0.437500000000000   0.604166666666667
   0.395833333333333   0.354166666666667   0.645833333333333
   0.479166666666667   0.437500000000000   0.645833333333333
   0.354166666666667   0.395833333333333   0.645833333333333
   0.437500000000000   0.479166666666667   0.645833333333333
   0.333333333333333   0.333333333333333   0.666666666666667
   0.416666666666667   0.416666666666667   0.666666666666667
   0.375000000000000   0.375000000000000   0.708333333333333
   0.458333333333333   0.458333333333333   0.708333333333333
   0.333333333333333   0.416666666666667   0.750000000000000
   0.416666666666667   0.333333333333333   0.750000000000000
   0.375000000000000   0.458333333333333   0.791666666666667
   0.458333333333333   0.375000000000000   0.791666666666667
   0.395833333333333   0.479166666666667   0.687500000000000
   0.354166666666667   0.437500000000000   0.687500000000000
   0.479166666666667   0.395833333333333   0.687500000000000
   0.437500000000000   0.354166666666667   0.687500000000000
   0.479166666666667   0.354166666666667   0.729166666666667
   0.354166666666667   0.479166666666667   0.729166666666667
   0.395833333333333   0.437500000000000   0.729166666666667
   0.437500000000000   0.395833333333333   0.729166666666667
   0.395833333333333   0.395833333333333   0.770833333333333
   0.354166666666667   0.354166666666667   0.770833333333333
   0.479166666666667   0.479166666666667   0.770833333333333
   0.437500000000000   0.437500000000000   0.770833333333333
   0.395833333333333   0.354166666666667   0.812500000000000
   0.479166666666667   0.437500000000000   0.812500000000000
   0.354166666666667   0.395833333333333   0.812500000000000
   0.437500000000000   0.479166666666667   0.812500000000000
   0.333333333333333   0.333333333333333   0.833333333333333
   0.416666666666667   0.416666666666667   0.833333333333333
   0.375000000000000   0.375000000000000   0.875000000000000
   0.458333333333333   0.458333333333333   0.875000000000000
   0.333333333333333   0.416666666666667   0.916666666666667
   0.416666666666667   0.333333333333333   0.916666666666667
   0.375000000000000   0.458333333333333   0.958333333333333
   0.458333333333333   0.375000000000000   0.958333333333333
   0.395833333333333   0.479166666666667   0.854166666666667
   0.354166666666667   0.437500000000000   0.854166666666667
   0.479166666666667   0.395833333333333   0.854166666666667
   0.437500000000000   0.354166666666667   0.854166666666667
   0.479166666666667   0.354166666666667   0.895833333333333
   0.354166666666667   0.479166666666667   0.895833333333333
   0.395833333333333   0.437500000000000   0.895833333333333
   0.437500000000000   0.395833333333333   0.895833333333333
   0.395833333333333   0.395833333333333   0.937500000000000
   0.354166666666667   0.354166666666667   0.937500000000000
   0.479166666666667   0.479166666666667   0.937500000000000
   0.437500000000000   0.437500000000000   0.937500000000000
   0.395833333333333   0.354166666666667   0.979166666666667
   0.479166666666667   0.437500000000000   0.979166666666667
   0.354166666666667   0.395833333333333   0.979166666666667
   0.437500000000000   0.479166666666667   0.979166666666667
   0.333333333333333   0.500000000000000   0.000000000000000
   0.416666666666667   0.583333333333333   0.000000000000000
   0.375000000000000   0.541666666666667   0.041666666666667
   0.458333333333333   0.625000000000000   0.041666666666667
   0.333333333333333   0.583333333333333   0.083333333333333
   0.416666666666667   0.500000000000000   0.083333333333333
   0.375000000000000   0.625000000000000   0.125000000000000
   0.458333333333333   0.541666666666667   0.125000000000000
   0.395833333333333   0.645833333333333   0.020833333333333
   0.354166666666667   0.604166666666667   0.020833333333333
   0.479166666666667   0.562500000000000   0.020833333333333
   0.437500000000000   0.520833333333333   0.020833333333333
   0.479166666666667   0.520833333333333   0.062500000000000
   0.354166666666667   0.645833333333333   0.062500000000000
   0.395833333333333   0.604166666666667   0.062500000000000
   0.437500000000000   0.562500000000000   0.062500000000000
   0.395833333333333   0.562500000000000   0.104166666666667
   0.354166666666667   0.520833333333333   0.104166666666667
   0.479166666666667   0.645833333333333   0.104166666666667
   0.437500000000000   0.604166666666667   0.104166666666667
   0.395833333333333   0.520833333333333   0.145833333333333
   0.479166666666667   0.604166666666667   0.145833333333333
   0.354166666666667   0.562500000000000   0.145833333333333
   0.437500000000000   0.645833333333333   0.145833333333333
   0.333333333333333   0.500000000000000   0.166666666666667
   0.416666666666667   0.583333333333333   0.166666666666667
   0.375000000000000   0.541666666666667   0.208333333333333
   0.458333333333333   0.625000000000000   0.208333333333333
   0.333333333333333   0.583333333333333   0.250000000000000
   0.416666666666667   0.500000000000000   0.250000000000000
   0.375000000000000   0.625000000000000   0.291666666666667
   0.458333333333333   0.541666666666667   0.291666666666667
   0.395833333333333   0.645833333333333   0.187500000000000
   0.354166666666667   0.604166666666667   0.187500000000000
   0.479166666666667   0.562500000000000   0.187500000000000
   0.437500000000000   0.520833333333333   0.187500000000000
   0.479166666666667   0.520833333333333   0.229166666666667
   0.354166666666667   0.645833333333333   0.229166666666667
   0.395833333333333   0.604166666666667   0.229166666666667
   0.437500000000000   0.562500000000000   0.229166666666667
   0.395833333333333   0.562500000000000   0.270833333333333
   0.354166666666667   0.520833333333333   0.270833333333333
   0.479166666666667   0.645833333333333   0.270833333333333
   0.437500000000000   0.604166666666667   0.270833333333333
   0.395833333333333   0.520833333333333   0.312500000000000
   0.479166666666667   0.604166666666667   0.312500000000000
   0.354166666666667   0.562500000000000   0.312500000000000
   0.437500000000000   0.645833333333333   0.312500000000000
   0.333333333333333   0.500000000000000   0.333333333333333
   0.416666666666667   0.583333333333333   0.333333333333333
   0.375000000000000   0.541666666666667   0.375000000000000
   0.458333333333333   0.625000000000000   0.375000000000000
   0.333333333333333   0.583333333333333   0.416666666666667
   0.416666666666667   0.500000000000000   0.416666666666667
   0.375000000000000   0.625000000000000   0.458333333333333
   0.458333333333333   0.541666666666667   0.458333333333333
   0.395833333333333   0.645833333333333   0.354166666666667
   0.354166666666667   0.604166666666667   0.354166666666667
   0.479166666666667   0.562500000000000   0.354166666666667
   0.437500000000000   0.520833333333333   0.354166666666667
   0.479166666666667   0.520833333333333   0.395833333333333
   0.354166666666667   0.645833333333333   0.395833333333333
   0.395833333333333   0.604166666666667   0.395833333333333
   0.437500000000000   0.562500000000000   0.395833333333333
   0.395833333333333   0.562500000000000   0.437500000000000
   0.354166666666667   0.520833333333333   0.437500000000000
   0.479166666666667   0.645833333333333   0.437500000000000
   0.437500000000000   0.604166666666667   0.437500000000000
   0.395833333333333   0.520833333333333   0.479166666666667
   0.479166666666667   0.604166666666667   0.479166666666667
   0.354166666666667   0.562500000000000   0.479166666666667
   0.437500000000000   0.645833333333333   0.479166666666667
   0.333333333333333   0.500000000000000   0.500000000000000
   0.416666666666667   0.583333333333333   0.500000000000000
   0.375000000000000   0.541666666666667   0.541666666666667
   0.458333333333333   0.625000000000000   0.541666666666667
   0.333333333333333   0.583333333333333   0.583333333333333
   0.416666666666667   0.500000000000000   0.583333333333333
   0.375000000000000   0.625000000000000   0.625000000000000
   0.458333333333333   0.541666666666667   0.625000000000000
   0.395833333333333   0.645833333333333   0.520833333333333
   0.354166666666667   0.604166666666667   0.520833333333333
   0.479166666666667   0.562500000000000   0.520833333333333
   0.437500000000000   0.520833333333333   0.520833333333333
   0.479166666666667   0.520833333333333   0.562500000000000
   0.354166666666667   0.645833333333333   0.562500000000000
   0.395833333333333   0.604166666666667   0.562500000000000
   0.437500000000000   0.562500000000000   0.562500000000000
   0.395833333333333   0.562500000000000   0.604166666666667
   0.354166666666667   0.520833333333333   0.604166666666667
   0.479166666666667   0.645833333333333   0.604166666666667
   0.437500000000000   0.604166666666667   0.604166666666667
   0.395833333333333   0.520833333333333   0.645833333333333
   0.479166666666667   0.604166666666667   0.645833333333333
   0.354166666666667   0.562500000000000   0.645833333333333
   0.437500000000000   0.645833333333333   0.645833333333333
   0.333333333333333   0.500000000000000   0.666666666666667
   0.416666666666667   0.583333333333333   0.666666666666667
   0.375000000000000   0.541666666666667   0.708333333333333
   0.458333333333333   0.625000000000000   0.708333333333333
   0.333333333333333   0.583333333333333   0.750000000000000
   0.416666666666667   0.500000000000000   0.750000000000000
   0.375000000000000   0.625000000000000   0.791666666666667
   0.458333333333333   0.541666666666667   0.791666666666667
   0.395833333333333   0.645833333333333   0.687500000000000
   0.354166666666667   0.604166666666667   0.687500000000000
   0.479166666666667   0.562500000000000   0.687500000000000
   0.437500000000000   0.520833333333333   0.687500000000000
   0.479166666666667   0.520833333333333   0.729166666666667
   0.354166666666667   0.645833333333333   0.729166666666667
   0.395833333333333   0.604166666666667   0.729166666666667
   0.437500000000000   0.562500000000000   0.729166666666667
   0.395833333333333   0.562500000000000   0.770833333333333
   0.354166666666667   0.520833333333333   0.770833333333333
   0.479166666666667   0.645833333333333   0.770833333333333
   0.437500000000000   0.604166666666667   0.770833333333333
   0.395833333333333   0.520833333333333   0.812500000000000
   0.479166666666667   0.604166666666667   0.812500000000000
   0.354166666666667   0.562500000000000   0.812500000000000
   0.437500000000000   0.645833333333333   0.812500000000000
   0.333333333333333   0.500000000000000   0.833333333333333
   0.416666666666667   0.583333333333333   0.833333333333333
   0.375000000000000   0.541666666666667   0.875000000000000
   0.458333333333333   0.625000000000000   0.875000000000000
   0.333333333333333   0.583333333333333   0.916666666666667
   0.416666666666667   0.500000000000000   0.916666666666667
   0.375000000000000   0.625000000000000   0.958333333333333
   0.458333333333333   0.541666666666667   0.958333333333333
   0.395833333333333   0.645833333333333   0.854166666666667
   0.354166666666667   0.604166666666667   0.854166666666667
   0.479166666666667   0.562500000000000   0.854166666666667
   0.437500000000000   0.520833333333333   0.854166666666667
   0.479166666666667   0.520833333333333   0.895833333333333
   0.354166666666667   0.645833333333333   0.895833333333333
   0.395833333333333   0.604166666666667   0.895833333333333
   0.437500000000000   0.562500000000000   0.895833333333333
   0.395833333333333   0.562500000000000   0.937500000000000
   0.354166666666667   0.520833333333333   0.937500000000000
   0.479166666666667   0.645833333333333   0.937500000000000
   0.437500000000000   0.604166666666667   0.937500000000000
   0.395833333333333   0.520833333333333   0.979166666666667
   0.479166666666667   0.604166666666667   0.979166666666667
   0.354166666666667   0.562500000000000   0.979166666666667
   0.437500000000000   0.645833333333333   0.979166666666667
   0.500000000000000   0.333333333333333   0.000000000000000
   0.583333333333333   0.416666666666667   0.000000000000000
   0.541666666666667   0.375000000000000   0.041666666666667
   0.625000000000000   0.458333333333333   0.041666666666667
   0.500000000000000   0.416666666666667   0.083333333333333
   0.583333333333333   0.333333333333333   0.083333333333333
   0.541666666666667   0.458333333333333   0.125000000000000
   0.625000000000000   0.375000000000000   0.125000000000000
   0.562500000000000   0.479166666666667   0.020833333333333
   0.520833333333333   0.437500000000000   0.020833333333333
   0.645833333333333   0.395833333333333   0.020833333333333
   0.604166666666667   0.354166666666667   0.020833333333333
   0.645833333333333   0.354166666666667   0.062500000000000
   0.520833333333333   0.479166666666667   0.062500000000000
   0.562500000000000   0.437500000000000   0.062500000000000
   0.604166666666667   0.395833333333333   0.062500000000000
   0.562500000000000   0.395833333333333   0.104166666666667
   0.520833333333333   0.354166666666667   0.104166666666667
   0.645833333333333   0.479166666666667   0.104166666666667
   0.604166666666667   0.437500000000000   0.104166666666667
   0.562500000000000   0.354166666666667   0.145833333333333
   0.645833333333333   0.437500000000000   0.145833333333333
   0.520833333333333   0.395833333333333   0.145833333333333
   0.604166666666667   0.479166666666667   0.145833333333333
   0.500000000000000   0.333333333333333   0.166666666666667
   0.583333333333333   0.416666666666667   0.166666666666667
   0.541666666666667   0.375000000000000   0.208333333333333
   0.625000000000000   0.458333333333333   0.208333333333333
   0.500000000000000   0.416666666666667   0.250000000000000
   0.583333333333333   0.333333333333333   0.250000000000000
   0.541666666666667   0.458333333333333   0.291666666666667
   0.625000000000000   0.375000000000000   0.291666666666667
   0.562500000000000   0.479166666666667   0.187500000000000
   0.520833333333333   0.437500000000000   0.187500000000000
   0.645833333333333   0.395833333333333   0.187500000000000
   0.604166666666667   0.354166666666667   0.187500000000000
   0.645833333333333   0.354166666666667   0.229166666666667
   0.520833333333333   0.479166666666667   0.229166666666667
   0.562500000000000   0.437500000000000   0.229166666666667
   0.604166666666667   0.395833333333333   0.229166666666667
   0.562500000000000   0.395833333333333   0.270833333333333
   0.520833333333333   0.354166666666667   0.270833333333333
   0.645833333333333   0.479166666666667   0.270833333333333
   0.604166666666667   0.437500000000000   0.270833333333333
   0.562500000000000   0.354166666666667   0.312500000000000
   0.645833333333333   0.437500000000000   0.312500000000000
   0.520833333333333   0.395833333333333   0.312500000000000
   0.604166666666667   0.479166666666667   0.312500000000000
   0.500000000000000   0.333333333333333   0.333333333333333
   0.583333333333333   0.416666666666667   0.333333333333333
   0.541666666666667   0.375000000000000   0.375000000000000
   0.625000000000000   0.458333333333333   0.375000000000000
   0.500000000000000   0.416666666666667   0.416666666666667
   0.583333333333333   0.333333333333333   0.416666666666667
   0.541666666666667   0.458333333333333   0.458333333333333
   0.625000000000000   0.375000000000000   0.458333333333333
   0.562500000000000   0.479166666666667   0.354166666666667
   0.520833333333333   0.437500000000000   0.354166666666667
   0.645833333333333   0.395833333333333   0.354166666666667
   0.604166666666667   0.354166666666667   0.354166666666667
   0.645833333333333   0.354166666666667   0.395833333333333
   0.520833333333333   0.479166666666667   0.395833333333333
   0.562500000000000   0.437500000000000   0.395833333333333
   0.604166666666667   0.395833333333333   0.395833333333333
   0.562500000000000   0.395833333333333   0.437500000000000
   0.520833333333333   0.354166666666667   0.437500000000000
   0.645833333333333   0.479166666666667   0.437500000000000
   0.604166666666667   0.437500000000000   0.437500000000000
   0.562500000000000   0.354166666666667   0.479166666666667
   0.645833333333333   0.437500000000000   0.479166666666667
   0.520833333333333   0.395833333333333   0.479166666666667
   0.604166666666667   0.479166666666667   0.479166666666667
   0.500000000000000   0.333333333333333   0.500000000000000
   0.583333333333333   0.416666666666667   0.500000000000000
   0.541666666666667   0.375000000000000   0.541666666666667
   0.625000000000000   0.458333333333333   0.541666666666667
   0.500000000000000   0.416666666666667   0.583333333333333
   0.583333333333333   0.333333333333333   0.583333333333333
   0.541666666666667   0.458333333333333   0.625000000000000
   0.625000000000000   0.375000000000000   0.625000000000000
   0.562500000000000   0.479166666666667   0.520833333333333
   0.520833333333333   0.437500000000000   0.520833333333333
   0.645833333333333   0.395833333333333   0.520833333333333
   0.604166666666667   0.354166666666667   0.520833333333333
   0.645833333333333   0.354166666666667   0.562500000000000
   0.520833333333333   0.479166666666667   0.562500000000000
   0.562500000000000   0.437500000000000   0.562500000000000
   0.604166666666667   0.395833333333333   0.562500000000000
   0.562500000000000   0.395833333333333   0.604166666666667
   0.520833333333333   0.354166666666667   0.604166666666667
   0.645833333333333   0.479166666666667   0.604166666666667
   0.604166666666667   0.437500000000000   0.604166666666667
   0.562500000000000   0.354166666666667   0.645833333333333
   0.645833333333333   0.437500000000000   0.645833333333333
   0.520833333333333   0.395833333333333   0.645833333333333
   0.604166666666667   0.479166666666667   0.645833333333333
   0.500000000000000   0.333333333333333   0.666666666666667
   0.583333333333333   0.416666666666667   0.666666666666667
   0.541666666666667   0.375000000000000   0.708333333333333
   0.625000000000000   0.458333333333333   0.708333333333333
   0.500000000000000   0.416666666666667   0.750000000000000
   0.583333333333333   0.333333333333333   0.750000000000000
   0.541666666666667   0.458333333333333   0.791666666666667
   0.625000000000000   0.375000000000000   0.791666666666667
   0.562500000000000   0.479166666666667   0.687500000000000
   0.520833333333333   0.437500000000000   0.687500000000000
   0.645833333333333   0.395833333333333   0.687500000000000
   0.604166666666667   0.354166666666667   0.687500000000000
   0.645833333333333   0.354166666666667   0.729166666666667
   0.520833333333333   0.479166666666667   0.729166666666667
   0.562500000000000   0.437500000000000   0.729166666666667
   0.604166666666667   0.395833333333333   0.729166666666667
   0.562500000000000   0.395833333333333   0.770833333333333
   0.520833333333333   0.354166666666667   0.770833333333333
   0.645833333333333   0.479166666666667   0.770833333333333
   0.604166666666667   0.437500000000000   0.770833333333333
   0.562500000000000   0.354166666666667   0.812500000000000
   0.645833333333333   0.437500000000000   0.812500000000000
   0.520833333333333   0.395833333333333   0.812500000000000
   0.604166666666667   0.479166666666667   0.812500000000000
   0.500000000000000   0.333333333333333   0.833333333333333
   0.583333333333333   0.416666666666667   0.833333333333333
   0.541666666666667   0.375000000000000   0.875000000000000
   0.625000000000000   0.458333333333333   0.875000000000000
   0.500000000000000   0.416666666666667   0.916666666666667
   0.583333333333333   0.333333333333333   0.916666666666667
   0.541666666666667   0.458333333333333   0.958333333333333
   0.625000000000000   0.375000000000000   0.958333333333333
   0.562500000000000   0.479166666666667   0.854166666666667
   0.520833333333333   0.437500000000000   0.854166666666667
   0.645833333333333   0.395833333333333   0.854166666666667
   0.604166666666667   0.354166666666667   0.854166666666667
   0.645833333333333   0.354166666666667   0.895833333333333
   0.520833333333333   0.479166666666667   0.895833333333333
   0.562500000000000   0.437500000000000   0.895833333333333
   0.604166666666667   0.395833333333333   0.895833333333333
   0.562500000000000   0.395833333333333   0.937500000000000
   0.520833333333333   0.354166666666667   0.937500000000000
   0.645833333333333   0.479166666666667   0.937500000000000
   0.604166666666667   0.437500000000000   0.937500000000000
   0.562500000000000   0.354166666666667   0.979166666666667
   0.645833333333333   0.437500000000000   0.979166666666667
   0.520833333333333   0.395833333333333   0.979166666666667
   0.604166666666667   0.479166666666667   0.979166666666667
   0.500000000000000   0.500000000000000   0.000000000000000
   0.583333333333333   0.583333333333333   0.000000000000000
   0.541666666666667   0.541666666666667   0.041666666666667
   0.625000000000000   0.625000000000000   0.041666666666667
   0.500000000000000   0.583333333333333   0.083333333333333
   0.583333333333333   0.500000000000000   0.083333333333333
   0.541666666666667   0.625000000000000   0.125000000000000
   0.625000000000000   0.541666666666667   0.125000000000000
   0.562500000000000   0.645833333333333   0.020833333333333
   0.520833333333333   0.604166666666667   0.020833333333333
   0.645833333333333   0.562500000000000   0.020833333333333
   0.604166666666667   0.520833333333333   0.020833333333333
   0.645833333333333   0.520833333333333   0.062500000000000
   0.520833333333333   0.645833333333333   0.062500000000000
   0.562500000000000   0.604166666666667   0.062500000000000
   0.604166666666667   0.562500000000000   0.062500000000000
   0.562500000000000   0.562500000000000   0.104166666666667
   0.520833333333333   0.520833333333333   0.104166666666667
   0.645833333333333   0.645833333333333   0.104166666666667
   0.604166666666667   0.604166666666667   0.104166666666667
   0.562500000000000   0.520833333333333   0.145833333333333
   0.645833333333333   0.604166666666667   0.145833333333333
   0.520833333333333   0.562500000000000   0.145833333333333
   0.604166666666667   0.645833333333333   0.145833333333333
   0.500000000000000   0.500000000000000   0.166666666666667
   0.583333333333333   0.583333333333333   0.166666666666667
   0.541666666666667   0.541666666666667   0.208333333333333
   0.625000000000000   0.625000000000000   0.208333333333333
   0.500000000000000   0.583333333333333   0.250000000000000
   0.583333333333333   0.500000000000000   0.250000000000000
   0.541666666666667   0.625000000000000   0.291666666666667
   0.625000000000000   0.541666666666667   0.291666666666667
   0.562500000000000   0.645833333333333   0.187500000000000
   0.520833333333333   0.604166666666667   0.187500000000000
   0.645833333333333   0.562500000000000   0.187500000000000
   0.604166666666667   0.520833333333333   0.187500000000000
   0.645833333333333   0.520833333333333   0.229166666666667
   0.520833333333333   0.645833333333333   0.229166666666667
   0.562500000000000   0.604166666666667   0.229166666666667
   0.604166666666667   0.562500000000000   0.229166666666667
   0.562500000000000   0.562500000000000   0.270833333333333
   0.520833333333333   0.520833333333333   0.270833333333333
   0.645833333333333   0.645833333333333   0.270833333333333
   0.604166666666667   0.604166666666667   0.270833333333333
   0.562500000000000   0.520833333333333   0.312500000000000
   0.645833333333333   0.604166666666667   0.312500000000000
   0.520833333333333   0.562500000000000   0.312500000000000
   0.604166666666667   0.645833333333333   0.312500000000000
   0.500000000000000   0.500000000000000   0.333333333333333
   0.583333333333333   0.583333333333333   0.333333333333333
   0.541666666666667   0.541666666666667   0.375000000000000
   0.625000000000000   0.625000000000000   0.375000000000000
   0.500000000000000   0.583333333333333   0.416666666666667